(declare-fun T_1 () Bool)
(declare-fun T_10 () Bool)
(declare-fun T_11 () Bool)
(declare-fun T_12 () Bool)
(declare-fun T_13 () Bool)
(declare-fun T_14 () Bool)
(declare-fun T_15 () Bool)
(declare-fun T_16 () Bool)
(declare-fun T_17 () Bool)
(declare-fun T_18 () Bool)
(declare-fun T_19 () Bool)
(declare-fun T_1a () Bool)
(declare-fun T_1b () Bool)
(declare-fun T_1c () Bool)
(declare-fun T_1d () Bool)
(declare-fun T_1e () Bool)
(declare-fun T_1f () Bool)
(declare-fun T_2 () Bool)
(declare-fun T_20 () Bool)
(declare-fun T_21 () Bool)
(declare-fun T_22 () Bool)
(declare-fun T_23 () Bool)
(declare-fun T_24 () Bool)
(declare-fun T_25 () Bool)
(declare-fun T_26 () Bool)
(declare-fun T_27 () Bool)
(declare-fun T_28 () Bool)
(declare-fun T_29 () Bool)
(declare-fun T_2a () Bool)
(declare-fun T_2b () Bool)
(declare-fun T_2c () Bool)
(declare-fun T_2d () Bool)
(declare-fun T_2e () Bool)
(declare-fun T_2f () Bool)
(declare-fun T_3 () Bool)
(declare-fun T_30 () Bool)
(declare-fun T_31 () Bool)
(declare-fun T_32 () Bool)
(declare-fun T_33 () Bool)
(declare-fun T_34 () Bool)
(declare-fun T_35 () Bool)
(declare-fun T_36 () Bool)
(declare-fun T_37 () Bool)
(declare-fun T_38 () Bool)
(declare-fun T_39 () Bool)
(declare-fun T_3a () Bool)
(declare-fun T_3b () Bool)
(declare-fun T_3c () Bool)
(declare-fun T_3d () Bool)
(declare-fun T_3e () Bool)
(declare-fun T_3f () Bool)
(declare-fun T_4 () Bool)
(declare-fun T_40 () Bool)
(declare-fun T_41 () Bool)
(declare-fun T_42 () Bool)
(declare-fun T_43 () Bool)
(declare-fun T_44 () Bool)
(declare-fun T_45 () Bool)
(declare-fun T_46 () Bool)
(declare-fun T_47 () Bool)
(declare-fun T_48 () Bool)
(declare-fun T_49 () Bool)
(declare-fun T_4a () Bool)
(declare-fun T_4b () Bool)
(declare-fun T_4c () Bool)
(declare-fun T_4d () Bool)
(declare-fun T_4e () Bool)
(declare-fun T_4f () Bool)
(declare-fun T_5 () Bool)
(declare-fun T_50 () Bool)
(declare-fun T_51 () Bool)
(declare-fun T_52 () Bool)
(declare-fun T_53 () Bool)
(declare-fun T_54 () Bool)
(declare-fun T_55 () Bool)
(declare-fun T_56 () Bool)
(declare-fun T_57 () Bool)
(declare-fun T_58 () Bool)
(declare-fun T_59 () Bool)
(declare-fun T_5a () Bool)
(declare-fun T_5b () Bool)
(declare-fun T_5c () Bool)
(declare-fun T_6 () Bool)
(declare-fun T_7 () Bool)
(declare-fun T_8 () Bool)
(declare-fun T_9 () Bool)
(declare-fun T_a () Bool)
(declare-fun T_b () Bool)
(declare-fun T_c () Bool)
(declare-fun T_d () Bool)
(declare-fun T_e () Bool)
(declare-fun T_f () Bool)
(declare-fun var_0xINPUT_264211 () String)
(assert (= T_1 (not (= "" var_0xINPUT_264211))))
(assert T_1)
(assert (= T_2 (not (= "" var_0xINPUT_264211))))
(assert T_2)
(assert (= T_3 (not (= "VZCCTTfYY8" var_0xINPUT_264211))))
(assert T_3)
(assert (= T_4 (not (= var_0xINPUT_264211 "VZCCTTfYY8"))))
(assert T_4)
(assert (= T_5 (= var_0xINPUT_264211 "")))
(assert (= T_6 (not T_5)))
(assert T_6)
(assert (= T_7 (not (= "" var_0xINPUT_264211))))
(assert T_7)
(assert (= T_8 (not (= var_0xINPUT_264211 "o7E1eVAEe3"))))
(assert T_8)
(assert (= T_9 (not (= "o7E1eVAEe3" var_0xINPUT_264211))))
(assert T_9)
(assert (= T_a (= var_0xINPUT_264211 "")))
(assert (= T_b (not T_a)))
(assert T_b)
(assert (= T_c (not (= "" var_0xINPUT_264211))))
(assert T_c)
(assert (= T_d (not (= "" var_0xINPUT_264211))))
(assert T_d)
(assert (= T_e (not (= var_0xINPUT_264211 ""))))
(assert T_e)
(assert (= T_f (= var_0xINPUT_264211 "")))
(assert (= T_10 (not T_f)))
(assert T_10)
(assert (= T_11 (not (= "" var_0xINPUT_264211))))
(assert T_11)
(assert (= T_12 (not (= "AA1ND6MEXd" var_0xINPUT_264211))))
(assert (= T_13 (not T_12)))
(assert T_13)
(assert (= T_14 (not (= var_0xINPUT_264211 "AA1ND6MEXd"))))
(assert (= T_15 (not T_14)))
(assert T_15)
(assert (= T_16 (= var_0xINPUT_264211 "")))
(assert (= T_17 (not T_16)))
(assert T_17)
(assert (= T_18 (not (= "" var_0xINPUT_264211))))
(assert T_18)
(assert (= T_19 (not (= var_0xINPUT_264211 "AA1ND6MEXd"))))
(assert (= T_1a (not T_19)))
(assert T_1a)
(assert (= T_1b (not (= "AA1ND6MEXd" var_0xINPUT_264211))))
(assert (= T_1c (not T_1b)))
(assert T_1c)
(assert (= T_1d (= var_0xINPUT_264211 "")))
(assert (= T_1e (not T_1d)))
(assert T_1e)
(assert (= T_1f (not (= "" var_0xINPUT_264211))))
(assert T_1f)
(assert (= T_20 (not (= "AA1ND6MEXd" var_0xINPUT_264211))))
(assert (= T_21 (not T_20)))
(assert T_21)
(assert (= T_22 (not (= var_0xINPUT_264211 "AA1ND6MEXd"))))
(assert (= T_23 (not T_22)))
(assert T_23)
(assert (= T_24 (= var_0xINPUT_264211 "")))
(assert (= T_25 (not T_24)))
(assert T_25)
(assert (= T_26 (not (= "" var_0xINPUT_264211))))
(assert T_26)
(assert (= T_27 (not (= "VZCCTTfYY8" var_0xINPUT_264211))))
(assert T_27)
(assert (= T_28 (not (= var_0xINPUT_264211 "VZCCTTfYY8"))))
(assert T_28)
(assert (= T_29 (= var_0xINPUT_264211 "")))
(assert (= T_2a (not T_29)))
(assert T_2a)
(assert (= T_2b (not (= "" var_0xINPUT_264211))))
(assert T_2b)
(assert (= T_2c (not (= "VZCCTTfYY8" var_0xINPUT_264211))))
(assert T_2c)
(assert (= T_2d (not (= var_0xINPUT_264211 "VZCCTTfYY8"))))
(assert T_2d)
(assert (= T_2e (= var_0xINPUT_264211 "")))
(assert (= T_2f (not T_2e)))
(assert T_2f)
(assert (= T_30 (not (= "" var_0xINPUT_264211))))
(assert T_30)
(assert (= T_31 (not (= var_0xINPUT_264211 ""))))
(assert T_31)
(assert (= T_32 (not (= "" var_0xINPUT_264211))))
(assert T_32)
(assert (= T_33 (= var_0xINPUT_264211 "")))
(assert (= T_34 (not T_33)))
(assert T_34)
(assert (= T_35 (not (= "" var_0xINPUT_264211))))
(assert T_35)
(assert (= T_36 (not (= var_0xINPUT_264211 ""))))
(assert T_36)
(assert (= T_37 (not (= "" var_0xINPUT_264211))))
(assert T_37)
(assert (= T_38 (= var_0xINPUT_264211 "")))
(assert (= T_39 (not T_38)))
(assert T_39)
(assert (= T_3a (not (= "" var_0xINPUT_264211))))
(assert T_3a)
(assert (= T_3b (not (= var_0xINPUT_264211 "VZCCTTfYY8"))))
(assert T_3b)
(assert (= T_3c (not (= "VZCCTTfYY8" var_0xINPUT_264211))))
(assert T_3c)
(assert (= T_3d (= var_0xINPUT_264211 "")))
(assert (= T_3e (not T_3d)))
(assert T_3e)
(assert (= T_3f (not (= "" var_0xINPUT_264211))))
(assert T_3f)
(assert (= T_40 (not (= "" var_0xINPUT_264211))))
(assert T_40)
(assert (= T_41 (not (= var_0xINPUT_264211 ""))))
(assert T_41)
(assert (= T_42 (= var_0xINPUT_264211 "")))
(assert (= T_43 (not T_42)))
(assert T_43)
(assert (= T_44 (not (= "" var_0xINPUT_264211))))
(assert T_44)
(assert (= T_45 (not (= var_0xINPUT_264211 ""))))
(assert T_45)
(assert (= T_46 (not (= "" var_0xINPUT_264211))))
(assert T_46)
(assert (= T_47 (= var_0xINPUT_264211 "")))
(assert (= T_48 (not T_47)))
(assert T_48)
(assert (= T_49 (not (= "" var_0xINPUT_264211))))
(assert T_49)
(assert (= T_4a (not (= "" var_0xINPUT_264211))))
(assert T_4a)
(assert (= T_4b (not (= var_0xINPUT_264211 ""))))
(assert T_4b)
(assert (= T_4c (= var_0xINPUT_264211 "")))
(assert (= T_4d (not T_4c)))
(assert T_4d)
(assert (= T_4e (not (= "" var_0xINPUT_264211))))
(assert T_4e)
(assert (= T_4f (= var_0xINPUT_264211 "Example:")))
(assert (= T_50 (not T_4f)))
(assert T_50)
(assert (= T_51 (not (= "" var_0xINPUT_264211))))
(assert T_51)
(assert (= T_52 (not (= "" var_0xINPUT_264211))))
(assert T_52)
(assert (= T_53 (not (= var_0xINPUT_264211 ""))))
(assert T_53)
(assert (= T_54 (= var_0xINPUT_264211 "")))
(assert (= T_55 (not T_54)))
(assert T_55)
(assert (= T_56 (not (= "" var_0xINPUT_264211))))
(assert T_56)
(assert (= T_57 (not (= var_0xINPUT_264211 "o7E1eVAEe3"))))
(assert T_57)
(assert (= T_58 (not (= "o7E1eVAEe3" var_0xINPUT_264211))))
(assert T_58)
(assert (= T_59 (= var_0xINPUT_264211 "")))
(assert (= T_5a (not T_59)))
(assert T_5a)
(assert (= T_5b (not (= "" var_0xINPUT_264211))))
(assert T_5b)
(assert (= T_5c (not (= var_0xINPUT_264211 "o7E1eVAEe3"))))
(assert T_5c)
(check-sat)
